c Cardinality constraint <=k(x_1,...,x_n) for k = 3 and n = 7.
p cnf 25 39
-1 8 0
-9 0
-10 0
-2 11 0
-8 11 0
-2 -8 12 0
-9 12 0
-2 -9 13 0
-10 13 0
-2 -10 0
-3 14 0
-11 14 0
-3 -11 15 0
-12 15 0
-3 -12 16 0
-13 16 0
-3 -13 0
-4 17 0
-14 17 0
-4 -14 18 0
-15 18 0
-4 -15 19 0
-16 19 0
-4 -16 0
-5 20 0
-17 20 0
-5 -17 21 0
-18 21 0
-5 -18 22 0
-19 22 0
-5 -19 0
-6 23 0
-20 23 0
-6 -20 24 0
-21 24 0
-6 -21 25 0
-22 25 0
-6 -22 0
-7 -25 0
